
Gurobi 10.0.1 (linux64) logging started Sun Nov 26 15:37:22 2023

Set parameter LogFile to value "ArtificialInstance/ExperimentV2/S3T5K1/BaDo/gurobi1.txt"
Gurobi Optimizer version 10.0.1 build v10.0.1rc0 (linux64)

CPU model: AMD EPYC 7H12 64-Core Processor, instruction set [SSE2|AVX|AVX2]
Thread count: 128 physical cores, 128 logical processors, using up to 32 threads

Academic license 656792 - for non-commercial use only - registered to b.___@student.vu.nl
Optimize a model with 420 rows, 720 columns and 2240 nonzeros
Model fingerprint: 0x37a6e235
Variable types: 0 continuous, 720 integer (720 binary)
Coefficient statistics:
  Matrix range     [1e+00, 1e+00]
  Objective range  [2e+00, 2e+01]
  Bounds range     [1e+00, 1e+00]
  RHS range        [1e+00, 1e+00]
Found heuristic solution: objective 470.0047255
Presolve time: 0.00s
Presolved: 420 rows, 720 columns, 2240 nonzeros
Variable types: 0 continuous, 720 integer (720 binary)

Root relaxation: objective 3.234728e+01, 380 iterations, 0.01 seconds (0.00 work units)

    Nodes    |    Current Node    |     Objective Bounds      |     Work
 Expl Unexpl |  Obj  Depth IntInf | Incumbent    BestBd   Gap | It/Node Time

     0     0   32.34728    0   60  470.00473   32.34728  93.1%     -    0s
H    0     0                      86.4205452   32.34728  62.6%     -    0s
H    0     0                      55.5530085   32.34728  41.8%     -    0s
H    0     0                      50.8199773   34.96097  31.2%     -    0s
     0     0   34.96097    0   92   50.81998   34.96097  31.2%     -    0s
H    0     0                      38.8037967   34.96097  9.90%     -    0s
     0     0   37.29752    0   58   38.80380   37.29752  3.88%     -    0s
     0     0   37.29752    0   18   38.80380   37.29752  3.88%     -    0s
     0     0     cutoff    0        38.80380   38.80380  0.00%     -    0s

Cutting planes:
  Gomory: 1
  RLT: 6

Explored 1 nodes (819 simplex iterations) in 0.12 seconds (0.02 work units)
Thread count was 32 (of 128 available processors)

Solution count 5: 38.8038 50.82 55.553 ... 470.005

Optimal solution found (tolerance 1.00e-04)
Best objective 3.880379674380e+01, best bound 3.880379674380e+01, gap 0.0000%
